33D32945 STP File, STP Format Version 1.0

SECTION Comment
Name    "i080-231"
Creator "Cees Duin"
Remark  "Incidence graph"
END

SECTION Graph
Nodes 80
Edges 160
E 1 31 205
E 1 63 195
E 1 76 200
E 2 48 197
E 2 60 197
E 3 19 194
E 3 21 193
E 3 22 201
E 3 31 197
E 3 64 196
E 3 76 198
E 4 20 200
E 4 33 204
E 4 58 193
E 4 65 195
E 4 66 205
E 4 78 200
E 5 6 298
E 5 34 204
E 6 31 197
E 6 49 198
E 6 68 206
E 7 51 196
E 8 27 198
E 8 28 192
E 8 32 207
E 8 68 202
E 9 62 195
E 9 67 197
E 9 69 195
E 9 80 195
E 10 71 200
E 11 28 206
E 11 57 195
E 12 33 201
E 12 39 205
E 12 45 201
E 12 53 192
E 13 26 196
E 13 37 198
E 13 60 200
E 14 56 205
E 15 22 203
E 15 38 193
E 15 45 197
E 15 51 202
E 15 62 201
E 15 64 196
E 16 34 184
E 16 39 196
E 16 48 196
E 16 65 198
E 16 72 203
E 17 33 102
E 17 40 96
E 17 44 97
E 17 72 101
E 18 49 92
E 18 67 95
E 19 26 100
E 19 39 91
E 19 40 91
E 19 50 102
E 19 53 100
E 19 54 104
E 20 37 93
E 20 46 101
E 21 57 100
E 21 59 110
E 22 26 100
E 23 30 109
E 23 63 99
E 23 71 95
E 24 53 105
E 24 54 98
E 25 32 105
E 25 65 95
E 26 40 100
E 26 41 110
E 26 55 101
E 26 56 97
E 27 48 111
E 27 60 106
E 28 53 101
E 28 62 99
E 29 41 91
E 29 71 103
E 30 68 102
E 30 76 102
E 31 51 101
E 31 52 98
E 31 54 92
E 31 77 100
E 31 80 93
E 32 71 94
E 33 42 103
E 34 41 101
E 34 46 102
E 35 37 100
E 35 55 108
E 35 62 98
E 35 71 99
E 36 56 107
E 36 70 99
E 36 74 98
E 38 58 100
E 40 45 97
E 40 60 89
E 40 75 97
E 40 76 96
E 40 79 97
E 41 56 105
E 41 76 105
E 42 80 101
E 43 47 106
E 43 53 88
E 44 51 107
E 44 54 104
E 44 70 97
E 45 47 112
E 45 62 98
E 45 76 96
E 45 77 92
E 46 66 97
E 47 48 101
E 47 49 101
E 47 51 92
E 47 52 107
E 47 63 94
E 47 65 94
E 49 50 93
E 51 52 93
E 51 72 99
E 52 67 98
E 54 65 104
E 55 63 105
E 56 58 106
E 56 73 101
E 57 63 96
E 58 63 98
E 59 60 99
E 59 69 105
E 59 72 102
E 59 75 98
E 60 76 100
E 60 79 104
E 61 74 100
E 61 75 100
E 62 72 98
E 64 69 100
E 65 66 95
E 65 68 106
E 65 73 100
E 65 78 100
E 66 73 95
E 67 73 103
E 68 77 102
E 71 73 100
E 71 77 98
E 76 78 97
END

SECTION Terminals
Terminals 16
T 1
T 2
T 3
T 4
T 5
T 6
T 7
T 8
T 9
T 10
T 11
T 12
T 13
T 14
T 15
T 16
END

EOF
